cases/matpower/case5_db.m
ipopt
QCRM
[warn | PowerModels]: added zero cost function data for dclines
[warn | PowerModels]: active generators found at bus 1, updating to bus type from 1 to 2
[warn | PowerModels]: active generators found at bus 5, updating to bus type from 1 to 2
[warn | PowerModels]: the voltage setpoint on generator 4 does not match the value at bus 5
[warn | PowerModels]: the voltage setpoint on generator 2 does not match the value at bus 1
[warn | PowerModels]: the to bus voltage setpoint on dc line 1 does not match the value at bus 5
[info | PowerModels]: removing 3 cost terms from dcline 1: Float64[]

******************************************************************************
This program contains Ipopt, a library for large-scale nonlinear optimization.
 Ipopt is released as open source code under the Eclipse Public License (EPL).
         For more information visit http://projects.coin-or.org/Ipopt
******************************************************************************

This is Ipopt version 3.13.2, running with linear solver mumps.
NOTE: Other linear solvers might be more efficient (see Ipopt documentation).

Number of nonzeros in equality constraint Jacobian...:      127
Number of nonzeros in inequality constraint Jacobian.:      264
Number of nonzeros in Lagrangian Hessian.............:       37

Total number of variables............................:       71
                     variables with only lower bounds:        0
                variables with lower and upper bounds:       66
                     variables with only upper bounds:        0
Total number of equality constraints.................:       36
Total number of inequality constraints...............:      102
        inequality constraints with only lower bounds:       49
   inequality constraints with lower and upper bounds:        0
        inequality constraints with only upper bounds:       53

iter    objective    inf_pr   inf_du lg(mu)  ||d||  lg(rg) alpha_du alpha_pr  ls
   0  7.0599921e+01 4.83e+01 2.90e+01  -1.0 0.00e+00    -  0.00e+00 0.00e+00   0
   1  2.9433616e+03 4.12e+01 5.84e+01  -1.0 3.19e+00  -4.0 3.19e-03 1.48e-01h  1
   2  2.2708365e+03 3.99e+01 5.66e+01  -1.0 1.37e+01  -4.5 2.64e-02 3.03e-02f  1
   3  2.2765852e+03 3.94e+01 5.60e+01  -1.0 8.59e+00  -5.0 2.36e-02 1.20e-02h  1
   4  2.7210294e+03 3.75e+01 5.32e+01  -1.0 7.04e+00  -5.4 4.60e-02 4.96e-02H  1
   5  3.9538951e+03 3.19e+01 4.52e+01  -1.0 6.43e+00  -5.9 2.88e-01 1.48e-01h  1
   6  8.4167828e+03 1.25e+01 1.79e+01  -1.0 5.51e+00  -6.4 6.62e-02 6.09e-01H  1
   7  9.0685395e+03 9.47e+00 1.39e+01  -1.0 2.56e+00  -6.9 7.59e-01 2.42e-01h  1
   8  9.1136143e+03 9.31e+00 3.61e+01  -1.0 2.04e+00  -7.3 1.98e-01 1.63e-02h  1
   9  1.0270509e+04 7.89e+00 2.06e+01  -1.0 1.89e+00  -7.8 1.49e-03 1.53e-01h  1
iter    objective    inf_pr   inf_du lg(mu)  ||d||  lg(rg) alpha_du alpha_pr  ls
  10  1.5837483e+04 1.14e+00 6.80e+00  -1.0 1.63e+00  -8.3 6.83e-01 8.56e-01h  1
  11  1.6765641e+04 1.14e-02 1.62e+01  -1.0 1.72e+00  -8.8 6.52e-01 9.90e-01h  1
  12  1.6767358e+04 1.49e-01 1.34e+03  -1.0 2.27e+00  -9.2 1.00e+00 7.19e-01h  1
  13  1.6782502e+04 2.72e-05 1.56e+02  -1.0 6.66e-01  -9.7 1.00e+00 9.91e-01h  1
  14  1.6781837e+04 9.33e-12 3.90e-03  -1.0 3.66e-01 -10.2 1.00e+00 1.00e+00h  1
  15  1.6749656e+04 3.70e-03 1.05e+05  -3.8 2.37e+00 -10.7 8.78e-01 8.15e-01f  1
  16  1.6744353e+04 5.68e-02 1.17e+04  -3.8 6.63e-01 -11.2 9.08e-01 9.01e-01h  1
  17  1.6740371e+04 4.35e-02 4.67e+03  -3.8 3.44e-01 -11.6 7.52e-01 1.00e+00h  1
  18  1.6739077e+04 1.25e-02 9.69e-02  -3.8 1.38e-01 -12.1 1.00e+00 8.20e-01h  1
  19  1.6739371e+04 3.59e-12 8.24e-02  -3.8 2.37e-02 -12.6 9.03e-01 1.00e+00h  1
iter    objective    inf_pr   inf_du lg(mu)  ||d||  lg(rg) alpha_du alpha_pr  ls
  20  1.6739411e+04 4.55e-12 1.64e-04  -3.8 6.08e-03 -13.1 1.00e+00 1.00e+00h  1
  21  1.6739101e+04 1.57e-05 1.50e+03  -5.7 3.27e-02 -13.5 9.15e-01 8.15e-01h  1
  22  1.6739090e+04 1.24e-05 2.23e+03  -5.7 1.76e-02 -14.0 9.77e-01 1.80e-01h  1
  23  1.6739069e+04 7.39e-05 9.10e+02  -5.7 2.74e-02 -14.5 1.00e+00 5.97e-01f  1
  24  1.6739066e+04 2.85e-04 2.56e+01  -5.7 2.11e-02 -15.0 1.00e+00 9.72e-01f  1
  25  1.6739066e+04 1.26e-04 1.28e+01  -5.7 1.95e-03 -15.5 1.00e+00 5.00e-01f  2
  26  1.6739067e+04 8.49e-13 4.24e-06  -5.7 9.88e-04 -15.9 1.00e+00 1.00e+00h  1
  27  1.6739065e+04 4.80e-06 2.08e+01  -8.6 3.78e-03 -16.4 9.97e-01 8.84e-01h  1
  28  1.6739065e+04 6.44e-07 2.08e+00  -8.6 5.81e-04 -16.9 1.00e+00 9.03e-01h  1
  29  1.6739065e+04 1.33e-12 3.50e-08  -8.6 9.02e-05 -17.4 1.00e+00 1.00e+00f  1
In iteration 29, 1 Slack too small, adjusting variable bound
iter    objective    inf_pr   inf_du lg(mu)  ||d||  lg(rg) alpha_du alpha_pr  ls
  30  1.6739065e+04 1.55e-11 1.44e-01  -8.6 9.41e-06 -17.8 1.00e+00 4.51e-01h  1
  31  1.6739065e+04 9.09e-12 4.38e-10  -8.6 3.39e-06 -18.3 1.00e+00 1.00e+00h  1

Number of Iterations....: 31

                                   (scaled)                 (unscaled)
Objective...............:   4.1847663576325840e+02    1.6739065430530336e+04
Dual infeasibility......:   4.3822251383218713e-10    1.7528900553287485e-08
Constraint violation....:   2.8275337626837427e-14    9.0936667918040115e-12
Complementarity.........:   3.1427355438979160e-09    1.2570942175591663e-07
Overall NLP error.......:   3.1427355438979160e-09    1.2570942175591663e-07


Number of objective function evaluations             = 35
Number of objective gradient evaluations             = 32
Number of equality constraint evaluations            = 35
Number of inequality constraint evaluations          = 35
Number of equality constraint Jacobian evaluations   = 32
Number of inequality constraint Jacobian evaluations = 32
Number of Lagrangian Hessian evaluations             = 31
Total CPU secs in IPOPT (w/o function evaluations)   =      0.316
Total CPU secs in NLP function evaluations           =      0.211

EXIT: Optimal Solution Found.
Time to Solution........:1.3110530376434326
